(set-info :source |printed by MathSAT|)
(declare-fun |.x{103}| () Int)
(declare-fun |.x{112}| () Int)
(declare-fun |.x{104}| () Int)
(declare-fun |.y{3}| () Int)
(declare-fun |.x{105}| () (Array Int Int))
(declare-fun |.x{113}| () (Array Int Int))
(declare-fun |.x{106}| () Int)
(declare-fun |.x{111}| () Int)
(declare-fun |.y{2}| () Int)
(declare-fun |.x{114}| () Int)
(declare-fun |.loc{4}| () Bool)
(declare-fun |.loc{7}| () Bool)
(declare-fun |.loc{5}| () Bool)
(declare-fun |.loc{8}| () Bool)
(declare-fun |.loc{6}| () Bool)
(declare-fun |.loc{9}| () Bool)
(declare-fun |.x{122}| () Int)
(declare-fun |.x{140}| () Int)
(define-fun .def_18 () Bool (! |.loc{4}| :next |.loc{7}|))
(define-fun .def_73 () Bool (not .def_18))
(define-fun .def_20 () Bool (! |.loc{5}| :next |.loc{8}|))
(define-fun .def_28 () Bool (not .def_20))
(define-fun .def_165 () Bool (and .def_28 .def_73))
(define-fun .def_22 () Bool (! |.loc{6}| :next |.loc{9}|))
(define-fun .def_61 () Bool (not .def_22))
(define-fun .def_166 () Bool (! (and .def_61 .def_165) :init true))
(define-fun .def_78 () Bool (not |.loc{7}|))
(define-fun .def_154 () Bool (and |.loc{9}| .def_78))
(define-fun .def_26 () Bool (not |.loc{8}|))
(define-fun .def_155 () Bool (and .def_26 .def_154))
(define-fun .def_14 () Int (! |.x{106}| :next |.x{111}|))
(define-fun .def_151 () Bool (= .def_14 |.x{114}|))
(define-fun .def_146 () Bool (= |.x{111}| 0))
(define-fun .def_10 () Int (! |.x{104}| :next |.y{3}|))
(define-fun .def_30 () Bool (<= .def_14 .def_10))
(define-fun .def_147 () Bool (and .def_30 .def_146))
(define-fun .def_148 () Bool (and .def_18 .def_147))
(define-fun .def_149 () Bool (and .def_20 .def_148))
(define-fun .def_150 () Bool (and .def_61 .def_149))
(define-fun .def_152 () Bool (and .def_150 .def_151))
(define-fun .def_142 () Int (* (- 1) |.x{111}|))
(define-fun .def_143 () Int (+ .def_14 .def_142))
(define-fun .def_144 () Bool (= .def_143 (- 1)))
(define-fun .def_56 () Int (* (- 1) |.x{122}|))
(define-fun .def_135 () Int (+ .def_14 .def_56))
(define-fun .def_8 () Int (! |.x{103}| :next |.x{112}|))
(define-fun .def_136 () Int (+ .def_8 .def_135))
(define-fun .def_137 () Bool (= .def_136 0))
(define-fun .def_16 () Int (! |.y{2}| :next |.x{114}|))
(define-fun .def_132 () Bool (<= .def_16 .def_14))
(define-fun .def_133 () Bool (not .def_132))
(define-fun .def_12 () (Array Int Int) (! |.x{105}| :next |.x{113}|))
(define-fun .def_129 () Int (select .def_12 |.x{122}|))
(define-fun .def_130 () Bool (= .def_129 44))
(define-fun .def_126 () Bool (= .def_16 |.x{114}|))
(define-fun .def_127 () Bool (and .def_28 .def_126))
(define-fun .def_128 () Bool (and .def_73 .def_127))
(define-fun .def_131 () Bool (and .def_128 .def_130))
(define-fun .def_134 () Bool (and .def_131 .def_133))
(define-fun .def_138 () Bool (and .def_134 .def_137))
(define-fun .def_47 () Bool (<= |.x{122}| 0))
(define-fun .def_48 () Bool (not .def_47))
(define-fun .def_46 () Bool (<= .def_8 0))
(define-fun .def_49 () Bool (or .def_46 .def_48))
(define-fun .def_139 () Bool (and .def_49 .def_138))
(define-fun .def_52 () Bool (not .def_46))
(define-fun .def_140 () Bool (and .def_52 .def_139))
(define-fun .def_141 () Bool (and .def_22 .def_140))
(define-fun .def_145 () Bool (and .def_141 .def_144))
(define-fun .def_153 () Bool (or .def_145 .def_152))
(define-fun .def_156 () Bool (and .def_153 .def_155))
(define-fun .def_65 () Bool (= |.y{3}| 0))
(define-fun .def_118 () Bool (and |.loc{7}| .def_65))
(define-fun .def_119 () Bool (and |.loc{8}| .def_118))
(define-fun .def_24 () Bool (= .def_14 |.x{111}|))
(define-fun .def_120 () Bool (and .def_24 .def_119))
(define-fun .def_121 () Bool (and .def_73 .def_120))
(define-fun .def_122 () Bool (and .def_30 .def_121))
(define-fun .def_123 () Bool (and .def_20 .def_122))
(define-fun .def_54 () Bool (not |.loc{9}|))
(define-fun .def_124 () Bool (and .def_54 .def_123))
(define-fun .def_125 () Bool (and .def_61 .def_124))
(define-fun .def_157 () Bool (or .def_125 .def_156))
(define-fun .def_100 () Bool (= .def_12 |.x{113}|))
(define-fun .def_158 () Bool (and .def_100 .def_157))
(define-fun .def_110 () (Array Int Int) (store .def_12 |.x{122}| 44))
(define-fun .def_111 () Bool (= |.x{113}| .def_110))
(define-fun .def_103 () Bool (and |.loc{7}| |.loc{8}|))
(define-fun .def_104 () Bool (and .def_24 .def_103))
(define-fun .def_31 () Bool (not .def_30))
(define-fun .def_105 () Bool (and .def_31 .def_104))
(define-fun .def_39 () Int (* (- 1) |.y{3}|))
(define-fun .def_40 () Int (+ .def_10 .def_39))
(define-fun .def_41 () Bool (= .def_40 (- 1)))
(define-fun .def_106 () Bool (and .def_41 .def_105))
(define-fun .def_107 () Bool (and .def_49 .def_106))
(define-fun .def_108 () Bool (and .def_18 .def_107))
(define-fun .def_112 () Bool (and .def_108 .def_111))
(define-fun .def_113 () Bool (and .def_20 .def_112))
(define-fun .def_114 () Bool (and .def_52 .def_113))
(define-fun .def_115 () Bool (and .def_54 .def_114))
(define-fun .def_57 () Int (+ .def_10 .def_56))
(define-fun .def_58 () Int (+ .def_8 .def_57))
(define-fun .def_59 () Bool (= .def_58 0))
(define-fun .def_116 () Bool (and .def_59 .def_115))
(define-fun .def_117 () Bool (and .def_61 .def_116))
(define-fun .def_159 () Bool (or .def_117 .def_158))
(define-fun .def_93 () Bool (and |.loc{8}| .def_65))
(define-fun .def_94 () Bool (and .def_24 .def_93))
(define-fun .def_95 () Bool (and .def_78 .def_94))
(define-fun .def_96 () Bool (and .def_28 .def_95))
(define-fun .def_97 () Bool (and .def_30 .def_96))
(define-fun .def_98 () Bool (and .def_18 .def_97))
(define-fun .def_99 () Bool (and .def_54 .def_98))
(define-fun .def_101 () Bool (and .def_99 .def_100))
(define-fun .def_102 () Bool (and .def_61 .def_101))
(define-fun .def_160 () Bool (or .def_102 .def_159))
(define-fun .def_81 () (Array Int Int) (store .def_12 |.x{122}| 43))
(define-fun .def_82 () Bool (= |.x{113}| .def_81))
(define-fun .def_77 () Bool (and |.loc{8}| .def_24))
(define-fun .def_79 () Bool (and .def_77 .def_78))
(define-fun .def_83 () Bool (and .def_79 .def_82))
(define-fun .def_84 () Bool (and .def_73 .def_83))
(define-fun .def_85 () Bool (and .def_31 .def_84))
(define-fun .def_86 () Bool (and .def_41 .def_85))
(define-fun .def_87 () Bool (and .def_49 .def_86))
(define-fun .def_88 () Bool (and .def_20 .def_87))
(define-fun .def_89 () Bool (and .def_52 .def_88))
(define-fun .def_90 () Bool (and .def_54 .def_89))
(define-fun .def_91 () Bool (and .def_59 .def_90))
(define-fun .def_92 () Bool (and .def_61 .def_91))
(define-fun .def_161 () Bool (or .def_92 .def_160))
(define-fun .def_43 () Bool (= .def_8 |.x{112}|))
(define-fun .def_162 () Bool (and .def_43 .def_161))
(define-fun .def_68 () Bool (<= |.x{111}| 0))
(define-fun .def_69 () Bool (not .def_68))
(define-fun .def_63 () Bool (<= |.x{112}| 0))
(define-fun .def_64 () Bool (not .def_63))
(define-fun .def_66 () Bool (and .def_64 .def_65))
(define-fun .def_67 () Bool (and |.loc{7}| .def_66))
(define-fun .def_70 () Bool (and .def_67 .def_69))
(define-fun .def_71 () Bool (and .def_26 .def_70))
(define-fun .def_72 () Bool (and .def_28 .def_71))
(define-fun .def_74 () Bool (and .def_72 .def_73))
(define-fun .def_75 () Bool (and .def_54 .def_74))
(define-fun .def_76 () Bool (and .def_61 .def_75))
(define-fun .def_163 () Bool (or .def_76 .def_162))
(define-fun .def_35 () (Array Int Int) (store .def_12 |.x{122}| 42))
(define-fun .def_36 () Bool (= |.x{113}| .def_35))
(define-fun .def_25 () Bool (and |.loc{7}| .def_24))
(define-fun .def_27 () Bool (and .def_25 .def_26))
(define-fun .def_29 () Bool (and .def_27 .def_28))
(define-fun .def_32 () Bool (and .def_29 .def_31))
(define-fun .def_37 () Bool (and .def_32 .def_36))
(define-fun .def_42 () Bool (and .def_37 .def_41))
(define-fun .def_44 () Bool (and .def_42 .def_43))
(define-fun .def_50 () Bool (and .def_44 .def_49))
(define-fun .def_51 () Bool (and .def_18 .def_50))
(define-fun .def_53 () Bool (and .def_51 .def_52))
(define-fun .def_55 () Bool (and .def_53 .def_54))
(define-fun .def_60 () Bool (and .def_55 .def_59))
(define-fun .def_62 () Bool (and .def_60 .def_61))
(define-fun .def_164 () Bool (! (or .def_62 .def_163) :trans true))
(define-fun .def_167 () Int (! |.x{140}| :next |.xpv{1}|))
(define-fun .def_182 () Bool (and .def_22 .def_165))
(define-fun .def_178 () Int (select .def_12 .def_167))
(define-fun .def_179 () Bool (= .def_178 44))
(define-fun .def_180 () Bool (not .def_179))
(define-fun .def_171 () Int (* (- 1) .def_167))
(define-fun .def_172 () Int (+ .def_14 .def_171))
(define-fun .def_173 () Int (+ .def_8 .def_172))
(define-fun .def_174 () Bool (= .def_173 0))
(define-fun .def_175 () Bool (and .def_133 .def_174))
(define-fun .def_168 () Bool (<= .def_167 0))
(define-fun .def_169 () Bool (not .def_168))
(define-fun .def_170 () Bool (or .def_46 .def_169))
(define-fun .def_176 () Bool (and .def_170 .def_175))
(define-fun .def_177 () Bool (and .def_52 .def_176))
(define-fun .def_181 () Bool (and .def_177 .def_180))
(define-fun .def_183 () Bool (and .def_181 .def_182))
(define-fun .def_185 () Bool (! (not .def_183) :invar-property 0))
(assert true)
